c File: data_files/evolved_graphs/g6201.col
c
c Auto generated graph
c
p edge 100 1425
e 1 6
e 1 7
e 1 19
e 1 25
e 1 31
e 1 33
e 1 34
e 1 38
e 1 42
e 1 49
e 1 52
e 1 55
e 1 58
e 1 60
e 1 62
e 1 67
e 1 69
e 1 70
e 1 78
e 1 82
e 1 84
e 1 85
e 1 92
e 1 94
e 1 98
e 1 99
e 2 4
e 2 6
e 2 12
e 2 13
e 2 23
e 2 24
e 2 29
e 2 31
e 2 33
e 2 34
e 2 35
e 2 39
e 2 47
e 2 51
e 2 56
e 2 66
e 2 70
e 2 80
e 2 81
e 2 84
e 2 87
e 2 93
e 2 95
e 2 99
e 2 100
e 3 11
e 3 21
e 3 28
e 3 33
e 3 36
e 3 38
e 3 39
e 3 46
e 3 48
e 3 51
e 3 52
e 3 59
e 3 62
e 3 64
e 3 70
e 3 71
e 3 77
e 3 79
e 3 83
e 3 85
e 3 90
e 3 91
e 3 93
e 3 94
e 3 96
e 3 100
e 4 7
e 4 9
e 4 11
e 4 13
e 4 14
e 4 20
e 4 21
e 4 30
e 4 31
e 4 32
e 4 33
e 4 36
e 4 37
e 4 43
e 4 44
e 4 46
e 4 49
e 4 56
e 4 59
e 4 61
e 4 74
e 4 78
e 4 80
e 5 8
e 5 16
e 5 20
e 5 26
e 5 28
e 5 30
e 5 32
e 5 33
e 5 34
e 5 36
e 5 42
e 5 46
e 5 48
e 5 49
e 5 56
e 5 60
e 5 66
e 5 71
e 5 74
e 5 89
e 5 92
e 5 95
e 6 9
e 6 11
e 6 12
e 6 20
e 6 27
e 6 34
e 6 35
e 6 39
e 6 49
e 6 52
e 6 53
e 6 54
e 6 58
e 6 59
e 6 64
e 6 65
e 6 66
e 6 76
e 6 81
e 6 88
e 6 89
e 6 90
e 6 92
e 6 93
e 6 100
e 7 11
e 7 14
e 7 22
e 7 26
e 7 32
e 7 33
e 7 34
e 7 37
e 7 38
e 7 41
e 7 44
e 7 45
e 7 50
e 7 53
e 7 54
e 7 64
e 7 65
e 7 71
e 7 92
e 7 94
e 7 98
e 7 99
e 7 100
e 8 11
e 8 12
e 8 17
e 8 20
e 8 21
e 8 22
e 8 23
e 8 24
e 8 27
e 8 28
e 8 30
e 8 33
e 8 37
e 8 40
e 8 42
e 8 43
e 8 47
e 8 52
e 8 53
e 8 56
e 8 64
e 8 67
e 8 74
e 8 75
e 8 91
e 8 92
e 8 96
e 8 98
e 8 99
e 9 12
e 9 13
e 9 18
e 9 30
e 9 32
e 9 34
e 9 36
e 9 37
e 9 38
e 9 39
e 9 40
e 9 43
e 9 46
e 9 52
e 9 53
e 9 54
e 9 55
e 9 61
e 9 63
e 9 74
e 9 77
e 9 85
e 9 92
e 9 93
e 9 97
e 9 99
e 10 12
e 10 30
e 10 34
e 10 36
e 10 40
e 10 41
e 10 42
e 10 43
e 10 46
e 10 54
e 10 57
e 10 58
e 10 59
e 10 66
e 10 69
e 10 73
e 10 75
e 10 86
e 10 91
e 10 93
e 10 94
e 10 100
e 11 16
e 11 17
e 11 21
e 11 24
e 11 26
e 11 30
e 11 35
e 11 36
e 11 37
e 11 39
e 11 41
e 11 43
e 11 47
e 11 48
e 11 54
e 11 56
e 11 59
e 11 64
e 11 66
e 11 69
e 11 70
e 11 75
e 11 85
e 11 99
e 12 14
e 12 17
e 12 18
e 12 25
e 12 27
e 12 29
e 12 33
e 12 35
e 12 38
e 12 45
e 12 49
e 12 50
e 12 59
e 12 62
e 12 65
e 12 66
e 12 68
e 12 71
e 12 72
e 12 74
e 12 82
e 12 87
e 12 96
e 12 97
e 12 99
e 13 14
e 13 16
e 13 25
e 13 26
e 13 27
e 13 28
e 13 29
e 13 39
e 13 42
e 13 48
e 13 49
e 13 52
e 13 57
e 13 58
e 13 66
e 13 68
e 13 69
e 13 72
e 13 73
e 13 77
e 13 86
e 13 93
e 13 96
e 13 98
e 13 99
e 14 16
e 14 17
e 14 20
e 14 24
e 14 28
e 14 30
e 14 32
e 14 35
e 14 38
e 14 39
e 14 41
e 14 44
e 14 49
e 14 52
e 14 57
e 14 58
e 14 63
e 14 67
e 14 71
e 14 72
e 14 73
e 14 82
e 14 90
e 14 92
e 14 100
e 15 16
e 15 18
e 15 21
e 15 22
e 15 23
e 15 25
e 15 29
e 15 31
e 15 32
e 15 34
e 15 36
e 15 38
e 15 40
e 15 41
e 15 42
e 15 44
e 15 46
e 15 51
e 15 53
e 15 54
e 15 57
e 15 61
e 15 64
e 15 65
e 15 68
e 15 70
e 15 73
e 15 78
e 15 79
e 15 80
e 15 82
e 15 87
e 15 89
e 15 91
e 15 97
e 16 23
e 16 26
e 16 29
e 16 30
e 16 34
e 16 35
e 16 37
e 16 38
e 16 39
e 16 40
e 16 41
e 16 46
e 16 49
e 16 51
e 16 52
e 16 66
e 16 68
e 16 69
e 16 78
e 16 80
e 16 82
e 16 88
e 16 94
e 16 96
e 16 97
e 16 99
e 17 18
e 17 19
e 17 20
e 17 24
e 17 29
e 17 34
e 17 36
e 17 37
e 17 39
e 17 40
e 17 46
e 17 47
e 17 48
e 17 51
e 17 53
e 17 55
e 17 56
e 17 58
e 17 63
e 17 66
e 17 67
e 17 68
e 17 70
e 17 71
e 17 72
e 17 75
e 17 82
e 17 88
e 17 89
e 18 19
e 18 21
e 18 26
e 18 27
e 18 35
e 18 36
e 18 38
e 18 40
e 18 45
e 18 48
e 18 49
e 18 50
e 18 53
e 18 54
e 18 60
e 18 61
e 18 70
e 18 72
e 18 75
e 18 80
e 18 82
e 18 86
e 18 92
e 19 23
e 19 26
e 19 27
e 19 30
e 19 32
e 19 34
e 19 40
e 19 41
e 19 45
e 19 47
e 19 51
e 19 55
e 19 59
e 19 64
e 19 67
e 19 69
e 19 74
e 19 78
e 19 82
e 19 86
e 19 92
e 19 95
e 20 21
e 20 25
e 20 26
e 20 28
e 20 29
e 20 35
e 20 38
e 20 44
e 20 49
e 20 50
e 20 55
e 20 56
e 20 58
e 20 64
e 20 65
e 20 67
e 20 74
e 20 77
e 20 78
e 20 80
e 20 81
e 20 85
e 20 87
e 21 25
e 21 26
e 21 27
e 21 31
e 21 35
e 21 38
e 21 42
e 21 46
e 21 51
e 21 53
e 21 56
e 21 57
e 21 59
e 21 60
e 21 61
e 21 62
e 21 65
e 21 72
e 21 75
e 21 79
e 21 83
e 21 86
e 21 90
e 21 91
e 22 25
e 22 26
e 22 27
e 22 28
e 22 36
e 22 37
e 22 39
e 22 40
e 22 41
e 22 47
e 22 49
e 22 52
e 22 55
e 22 56
e 22 59
e 22 61
e 22 65
e 22 66
e 22 67
e 22 68
e 22 72
e 22 83
e 22 89
e 22 99
e 23 24
e 23 27
e 23 33
e 23 35
e 23 36
e 23 38
e 23 41
e 23 43
e 23 46
e 23 48
e 23 51
e 23 52
e 23 54
e 23 60
e 23 63
e 23 64
e 23 65
e 23 67
e 23 68
e 23 69
e 23 74
e 23 77
e 23 80
e 23 81
e 23 82
e 23 83
e 23 84
e 23 91
e 23 99
e 23 100
e 24 36
e 24 40
e 24 41
e 24 42
e 24 43
e 24 44
e 24 46
e 24 47
e 24 49
e 24 50
e 24 60
e 24 69
e 24 71
e 24 73
e 24 79
e 24 82
e 24 84
e 24 93
e 24 94
e 24 98
e 25 29
e 25 38
e 25 42
e 25 45
e 25 47
e 25 48
e 25 50
e 25 52
e 25 55
e 25 57
e 25 70
e 25 79
e 25 81
e 25 85
e 25 90
e 25 97
e 26 29
e 26 43
e 26 45
e 26 50
e 26 52
e 26 53
e 26 54
e 26 62
e 26 69
e 26 70
e 26 72
e 26 73
e 26 74
e 26 84
e 27 33
e 27 37
e 27 44
e 27 45
e 27 46
e 27 49
e 27 56
e 27 64
e 27 66
e 27 67
e 27 69
e 27 73
e 27 76
e 27 79
e 27 83
e 27 84
e 27 86
e 27 89
e 27 90
e 27 92
e 28 32
e 28 36
e 28 45
e 28 49
e 28 51
e 28 52
e 28 54
e 28 55
e 28 58
e 28 59
e 28 61
e 28 62
e 28 67
e 28 71
e 28 75
e 28 85
e 28 87
e 28 90
e 28 95
e 28 98
e 28 99
e 28 100
e 29 33
e 29 38
e 29 43
e 29 45
e 29 47
e 29 56
e 29 57
e 29 62
e 29 65
e 29 66
e 29 74
e 29 75
e 29 81
e 29 82
e 29 83
e 29 86
e 29 88
e 29 93
e 29 97
e 29 98
e 29 100
e 30 31
e 30 33
e 30 38
e 30 39
e 30 44
e 30 45
e 30 51
e 30 52
e 30 54
e 30 55
e 30 57
e 30 61
e 30 62
e 30 66
e 30 67
e 30 75
e 30 76
e 30 79
e 30 80
e 30 81
e 30 82
e 30 86
e 30 91
e 30 92
e 30 94
e 30 96
e 31 38
e 31 39
e 31 46
e 31 48
e 31 49
e 31 54
e 31 55
e 31 56
e 31 64
e 31 65
e 31 66
e 31 67
e 31 68
e 31 70
e 31 72
e 31 73
e 31 75
e 31 84
e 31 90
e 31 91
e 31 93
e 31 95
e 31 97
e 31 98
e 32 47
e 32 52
e 32 53
e 32 54
e 32 59
e 32 60
e 32 64
e 32 66
e 32 68
e 32 71
e 32 73
e 32 74
e 32 76
e 32 77
e 32 78
e 32 92
e 32 97
e 32 98
e 32 99
e 32 100
e 33 35
e 33 37
e 33 43
e 33 50
e 33 51
e 33 52
e 33 57
e 33 61
e 33 62
e 33 65
e 33 66
e 33 67
e 33 70
e 33 71
e 33 77
e 33 90
e 33 92
e 33 94
e 33 95
e 33 96
e 34 36
e 34 39
e 34 45
e 34 50
e 34 51
e 34 53
e 34 55
e 34 57
e 34 58
e 34 63
e 34 69
e 34 71
e 34 82
e 34 89
e 34 91
e 34 96
e 34 98
e 35 39
e 35 40
e 35 43
e 35 48
e 35 50
e 35 51
e 35 57
e 35 58
e 35 59
e 35 60
e 35 75
e 35 78
e 35 83
e 35 85
e 35 90
e 35 92
e 35 95
e 36 37
e 36 39
e 36 41
e 36 43
e 36 45
e 36 46
e 36 52
e 36 55
e 36 56
e 36 58
e 36 63
e 36 73
e 36 80
e 36 83
e 36 85
e 36 98
e 37 41
e 37 42
e 37 46
e 37 53
e 37 55
e 37 57
e 37 67
e 37 70
e 37 77
e 37 78
e 37 80
e 37 83
e 37 86
e 37 87
e 38 43
e 38 49
e 38 55
e 38 63
e 38 66
e 38 79
e 38 81
e 38 87
e 38 88
e 38 92
e 38 96
e 38 99
e 38 100
e 39 42
e 39 44
e 39 48
e 39 54
e 39 55
e 39 67
e 39 70
e 39 72
e 39 75
e 39 78
e 39 82
e 39 83
e 39 86
e 39 87
e 39 89
e 39 90
e 39 91
e 39 92
e 39 94
e 40 46
e 40 59
e 40 61
e 40 66
e 40 67
e 40 70
e 40 71
e 40 72
e 40 81
e 40 83
e 40 88
e 40 91
e 40 92
e 40 93
e 40 94
e 40 97
e 40 99
e 41 42
e 41 60
e 41 65
e 41 67
e 41 68
e 41 74
e 41 79
e 41 84
e 41 85
e 41 87
e 41 90
e 41 92
e 41 93
e 41 97
e 42 44
e 42 46
e 42 47
e 42 48
e 42 60
e 42 68
e 42 70
e 42 78
e 42 81
e 42 87
e 42 89
e 42 90
e 42 94
e 43 44
e 43 46
e 43 47
e 43 63
e 43 66
e 43 67
e 43 69
e 43 72
e 43 75
e 43 78
e 43 85
e 43 86
e 43 88
e 43 89
e 43 99
e 44 45
e 44 46
e 44 63
e 44 64
e 44 65
e 44 66
e 44 68
e 44 69
e 44 71
e 44 72
e 44 76
e 44 81
e 44 82
e 44 85
e 44 87
e 44 91
e 44 95
e 44 97
e 45 50
e 45 55
e 45 56
e 45 59
e 45 67
e 45 70
e 45 75
e 45 79
e 45 81
e 45 88
e 45 89
e 45 95
e 45 97
e 45 100
e 46 55
e 46 63
e 46 68
e 46 77
e 46 78
e 46 80
e 46 84
e 46 85
e 46 88
e 46 90
e 46 91
e 46 100
e 47 49
e 47 55
e 47 57
e 47 70
e 47 74
e 47 76
e 47 77
e 47 86
e 47 88
e 47 89
e 47 91
e 47 92
e 47 94
e 47 95
e 47 100
e 48 54
e 48 56
e 48 57
e 48 63
e 48 64
e 48 65
e 48 66
e 48 69
e 48 70
e 48 77
e 48 78
e 48 79
e 48 85
e 48 89
e 48 95
e 48 99
e 49 54
e 49 57
e 49 67
e 49 72
e 49 73
e 49 77
e 49 84
e 49 85
e 49 87
e 49 88
e 49 89
e 49 94
e 49 95
e 49 98
e 50 53
e 50 56
e 50 67
e 50 68
e 50 69
e 50 71
e 50 73
e 50 76
e 50 77
e 50 78
e 50 79
e 50 80
e 50 86
e 50 90
e 50 91
e 50 94
e 50 97
e 50 98
e 51 52
e 51 53
e 51 54
e 51 59
e 51 68
e 51 76
e 51 80
e 51 81
e 51 84
e 51 85
e 51 86
e 51 87
e 51 94
e 51 95
e 51 98
e 51 99
e 52 53
e 52 64
e 52 65
e 52 66
e 52 72
e 52 73
e 52 78
e 52 81
e 52 84
e 52 88
e 52 94
e 52 96
e 53 54
e 53 66
e 53 69
e 53 72
e 53 73
e 53 87
e 53 88
e 53 90
e 53 96
e 54 59
e 54 60
e 54 62
e 54 66
e 54 67
e 54 69
e 54 73
e 54 77
e 54 81
e 54 82
e 54 84
e 54 85
e 54 91
e 54 100
e 55 58
e 55 61
e 55 64
e 55 69
e 55 70
e 55 74
e 55 75
e 55 77
e 55 83
e 55 84
e 55 86
e 55 87
e 55 99
e 56 59
e 56 63
e 56 66
e 56 67
e 56 69
e 56 73
e 56 74
e 56 78
e 56 79
e 56 80
e 56 81
e 56 83
e 56 84
e 56 85
e 56 87
e 56 92
e 56 97
e 56 100
e 57 61
e 57 63
e 57 67
e 57 71
e 57 72
e 57 76
e 57 78
e 57 79
e 57 81
e 57 83
e 57 86
e 57 91
e 57 95
e 58 59
e 58 60
e 58 61
e 58 63
e 58 66
e 58 68
e 58 69
e 58 70
e 58 75
e 58 76
e 58 77
e 58 80
e 58 90
e 58 91
e 58 92
e 59 60
e 59 65
e 59 69
e 59 77
e 59 78
e 59 81
e 59 83
e 59 87
e 59 94
e 59 97
e 60 62
e 60 70
e 60 71
e 60 75
e 60 76
e 60 77
e 60 78
e 60 79
e 60 81
e 60 84
e 60 87
e 60 88
e 60 91
e 60 97
e 61 62
e 61 69
e 61 71
e 61 74
e 61 79
e 61 80
e 61 81
e 61 82
e 61 85
e 61 86
e 61 87
e 61 88
e 61 89
e 61 90
e 61 92
e 61 99
e 62 69
e 62 70
e 62 73
e 62 74
e 62 76
e 62 78
e 62 80
e 62 82
e 62 83
e 62 85
e 62 87
e 62 89
e 62 90
e 62 91
e 62 96
e 62 99
e 63 65
e 63 67
e 63 71
e 63 72
e 63 74
e 63 76
e 63 79
e 63 81
e 63 85
e 63 87
e 63 89
e 63 90
e 63 99
e 64 69
e 64 70
e 64 71
e 64 74
e 64 75
e 64 78
e 64 80
e 64 81
e 64 83
e 64 89
e 64 90
e 64 93
e 64 98
e 64 100
e 65 74
e 65 77
e 65 82
e 65 88
e 65 90
e 65 91
e 65 95
e 65 96
e 65 97
e 66 68
e 66 69
e 66 71
e 66 73
e 66 76
e 66 82
e 66 86
e 66 88
e 67 78
e 67 79
e 67 89
e 67 100
e 68 70
e 68 74
e 68 77
e 68 81
e 68 85
e 68 89
e 68 96
e 68 98
e 69 71
e 69 73
e 69 74
e 69 77
e 69 78
e 69 79
e 69 82
e 69 83
e 69 84
e 69 89
e 69 94
e 70 76
e 70 81
e 70 89
e 70 91
e 70 92
e 70 93
e 70 99
e 71 72
e 71 75
e 71 76
e 71 81
e 71 84
e 71 86
e 71 89
e 71 93
e 72 75
e 72 80
e 72 84
e 72 87
e 72 89
e 72 93
e 72 94
e 72 96
e 72 97
e 73 78
e 73 79
e 73 83
e 73 87
e 73 88
e 73 91
e 73 92
e 73 95
e 73 96
e 73 98
e 74 75
e 74 76
e 74 83
e 74 87
e 74 90
e 74 98
e 75 83
e 75 84
e 75 86
e 75 89
e 75 96
e 75 97
e 75 98
e 76 80
e 76 83
e 76 85
e 76 86
e 76 87
e 76 91
e 76 94
e 76 97
e 76 99
e 77 87
e 77 92
e 77 94
e 77 95
e 77 96
e 77 97
e 78 86
e 78 87
e 78 88
e 78 89
e 79 87
e 79 89
e 79 90
e 79 91
e 79 93
e 79 97
e 80 84
e 80 86
e 80 87
e 80 88
e 80 97
e 80 99
e 80 100
e 81 83
e 81 85
e 81 87
e 81 88
e 81 98
e 81 100
e 82 86
e 82 94
e 82 96
e 82 97
e 82 98
e 83 84
e 83 91
e 83 92
e 83 94
e 83 98
e 83 100
e 84 85
e 84 86
e 84 96
e 84 100
e 85 90
e 85 92
e 85 96
e 85 97
e 85 98
e 86 87
e 86 88
e 86 92
e 86 93
e 86 98
e 86 100
e 87 93
e 87 94
e 87 95
e 87 96
e 87 98
e 87 99
e 88 90
e 88 91
e 88 95
e 88 96
e 88 98
e 88 100
e 89 92
e 89 94
e 89 96
e 89 99
e 89 100
e 90 94
e 90 95
e 90 100
e 91 92
e 91 96
e 91 99
e 92 93
e 92 100
e 93 97
e 93 98
e 94 97
e 94 98
e 94 100
e 95 99
e 96 100
e 97 100
e 99 100
